solving instance mcnd nodes c45 3 6 cubic
presolving:
(round 1, fast)       294 del vars, 294 del conss, 0 add conss, 20 chg bounds, 0 chg sides, 0 chg coeffs, 0 upgd conss, 0 impls, 0 clqs
(round 2, exhaustive) 294 del vars, 588 del conss, 0 add conss, 20 chg bounds, 0 chg sides, 0 chg coeffs, 0 upgd conss, 0 impls, 0 clqs
(round 3, exhaustive) 294 del vars, 588 del conss, 0 add conss, 20 chg bounds, 0 chg sides, 0 chg coeffs, 58820 upgd conss, 0 impls, 0 clqs
   (2.2s) probing: 71/314 (22.6%) - 20 fixings, 0 aggregations, 0 implications, 0 bound changes
   (2.2s) probing aborted: 50/50 successive totally useless probings
   (2.2s) symmetry computation started: requiring (bin +, int +, cont +), (fixed: bin -, int -, cont -)
   (2.7s) no symmetry present (symcode time: 0.16)
presolving (4 rounds: 4 fast, 3 medium, 3 exhaustive):
 314 deleted vars, 588 deleted constraints, 0 added constraints, 20 tightened bounds, 0 added holes, 0 changed sides, 0 changed coefficients
 58820 implications, 0 cliques
presolved problem has 59134 variables (294 bin, 0 int, 0 impl, 58840 cont) and 63154 constraints
  58820 constraints of type <varbound>
   4314 constraints of type <linear>
     20 constraints of type <nonlinear>
Presolving Time: 2.42

 time | node  | left  |LP iter|LP it/n|mem/heur|mdpt |vars |cons |rows |cuts |sepa|confs|strbr|  dualbound   | primalbound  |  gap   | compl. 
t68.2s|     1 |     0 | 30991 |     - |  trysol|   0 |  59k|  63k|  63k|   0 |  0 |   0 |   0 |-1.788347e+04 | 2.466170e+05 |    Inf | unknown
 1615s|     1 |     0 |164248 |     - |   480M |   0 |  59k|  63k|  63k|   0 |  0 |   0 |   0 | 1.046704e+02 | 2.466170e+05 |  Large | unknown
t1967s|     1 |     0 |207674 |     - |  trysol|   0 |  59k|  63k|  63k|   0 |  0 |   0 |   0 | 1.046704e+02 | 4.485800e+04 |  Large | unknown
 2309s|     1 |     0 |234931 |     - |   499M |   0 |  59k|  63k|  63k|  14 |  1 |   0 |   0 | 4.464329e+03 | 4.485800e+04 | 904.81%| unknown
 2337s|     1 |     0 |234931 |     - |   500M |   0 |  59k|  63k|  63k|  14 |  1 |   0 |   0 | 4.464329e+03 | 4.485800e+04 | 904.81%| unknown
r2348s|     1 |     0 |234931 |     - |simplero|   0 |  59k|  63k|  63k|  14 |  1 |   0 |   0 | 4.464329e+03 | 4.322226e+04 | 868.17%| unknown
 2608s|     1 |     0 |257934 |     - |   512M |   0 |  59k|  63k|  63k|  29 |  2 |   0 |   0 | 8.249016e+03 | 4.322226e+04 | 423.97%| unknown
 2836s|     1 |     0 |276446 |     - |   518M |   0 |  59k|  63k|  63k|  46 |  3 |   0 |   0 | 8.742877e+03 | 4.322226e+04 | 394.37%| unknown
 2996s|     1 |     0 |288716 |     - |   524M |   0 |  59k|  63k|  63k|  60 |  4 |   0 |   0 | 8.821026e+03 | 4.322226e+04 | 389.99%| unknown
 3130s|     1 |     0 |299840 |     - |   530M |   0 |  59k|  63k|  63k|  73 |  5 |   0 |   0 | 8.852765e+03 | 4.322226e+04 | 388.23%| unknown
 3218s|     1 |     0 |306976 |     - |   536M |   0 |  59k|  63k|  63k|  86 |  6 |   0 |   0 | 8.858359e+03 | 4.322226e+04 | 387.93%| unknown
 3237s|     1 |     0 |308874 |     - |   542M |   0 |  59k|  63k|  63k|  99 |  7 |   0 |   0 | 8.858941e+03 | 4.322226e+04 | 387.89%| unknown
 3248s|     1 |     0 |309616 |     - |   549M |   0 |  59k|  63k|  63k| 112 |  8 |   0 |   0 | 8.859165e+03 | 4.322226e+04 | 387.88%| unknown
 3254s|     1 |     0 |309905 |     - |   555M |   0 |  59k|  63k|  63k| 125 |  9 |   0 |   0 | 8.859236e+03 | 4.322226e+04 | 387.88%| unknown
 3260s|     1 |     0 |310053 |     - |   562M |   0 |  59k|  63k|  63k| 138 | 10 |   0 |   0 | 8.859246e+03 | 4.322226e+04 | 387.88%| unknown
 time | node  | left  |LP iter|LP it/n|mem/heur|mdpt |vars |cons |rows |cuts |sepa|confs|strbr|  dualbound   | primalbound  |  gap   | compl. 
 3265s|     1 |     0 |310125 |     - |   569M |   0 |  59k|  63k|  63k| 150 | 11 |   0 |   0 | 8.859249e+03 | 4.322226e+04 | 387.88%| unknown
 3269s|     1 |     0 |310208 |     - |   575M |   0 |  59k|  63k|  63k| 163 | 12 |   0 |   0 | 8.859250e+03 | 4.322226e+04 | 387.88%| unknown
 3273s|     1 |     0 |310239 |     - |   582M |   0 |  59k|  63k|  63k| 176 | 13 |   0 |   0 | 8.859250e+03 | 4.322226e+04 | 387.88%| unknown
 3276s|     1 |     0 |310254 |     - |   588M |   0 |  59k|  63k|  63k| 184 | 14 |   0 |   0 | 8.859250e+03 | 4.322226e+04 | 387.88%| unknown
 3280s|     1 |     0 |310262 |     - |   588M |   0 |  59k|  63k|  63k| 190 | 15 |   0 |   0 | 8.859250e+03 | 4.322226e+04 | 387.88%| unknown
 3285s|     1 |     0 |310267 |     - |   595M |   0 |  59k|  63k|  63k| 195 | 16 |   0 |   0 | 8.859250e+03 | 4.322226e+04 | 387.88%| unknown

SCIP Status        : solving was interrupted [time limit reached]
Solving Time (sec) : 3600.02
Solving Nodes      : 1
Primal Bound       : +4.32222597793108e+04 (3 solutions)
Dual Bound         : +8.85925031413984e+03
Gap                : 387.88 %
primal_bound = 43222.25977931079, dual_bound = 8859.250314139836, gap = 79.50303764917795, time = 3602.96
